(set-info :smt-lib-version 2.6)
(set-logic UF)
(set-info :source |Benchmarks from the paper: "Extending Sledgehammer with SMT Solvers" by Jasmin Blanchette, Sascha Bohme, and Lawrence C. Paulson, CADE 2011.  Translated to SMT2 by Andrew Reynolds and Morgan Deters.|)
(set-info :category "industrial")
(set-info :status unknown)
(declare-sort S1 0)
(declare-sort S2 0)
(declare-sort S3 0)
(declare-sort S4 0)
(declare-sort S5 0)
(declare-sort S6 0)
(declare-sort S7 0)
(declare-sort S8 0)
(declare-sort S9 0)
(declare-sort S10 0)
(declare-sort S11 0)
(declare-sort S12 0)
(declare-sort S13 0)
(declare-sort S14 0)
(declare-sort S15 0)
(declare-sort S16 0)
(declare-sort S17 0)
(declare-sort S18 0)
(declare-sort S19 0)
(declare-sort S20 0)
(declare-sort S21 0)
(declare-sort S22 0)
(declare-sort S23 0)
(declare-sort S24 0)
(declare-sort S25 0)
(declare-sort S26 0)
(declare-sort S27 0)
(declare-sort S28 0)
(declare-sort S29 0)
(declare-sort S30 0)
(declare-sort S31 0)
(declare-sort S32 0)
(declare-sort S33 0)
(declare-sort S34 0)
(declare-sort S35 0)
(declare-sort S36 0)
(declare-sort S37 0)
(declare-sort S38 0)
(declare-sort S39 0)
(declare-sort S40 0)
(declare-sort S41 0)
(declare-sort S42 0)
(declare-sort S43 0)
(declare-sort S44 0)
(declare-sort S45 0)
(declare-sort S46 0)
(declare-sort S47 0)
(declare-sort S48 0)
(declare-sort S49 0)
(declare-sort S50 0)
(declare-sort S51 0)
(declare-sort S52 0)
(declare-sort S53 0)
(declare-sort S54 0)
(declare-sort S55 0)
(declare-sort S56 0)
(declare-sort S57 0)
(declare-sort S58 0)
(declare-sort S59 0)
(declare-sort S60 0)
(declare-sort S61 0)
(declare-sort S62 0)
(declare-sort S63 0)
(declare-sort S64 0)
(declare-sort S65 0)
(declare-sort S66 0)
(declare-sort S67 0)
(declare-sort S68 0)
(declare-sort S69 0)
(declare-sort S70 0)
(declare-sort S71 0)
(declare-sort S72 0)
(declare-sort S73 0)
(declare-sort S74 0)
(declare-sort S75 0)
(declare-sort S76 0)
(declare-sort S77 0)
(declare-sort S78 0)
(declare-sort S79 0)
(declare-sort S80 0)
(declare-sort S81 0)
(declare-sort S82 0)
(declare-sort S83 0)
(declare-sort S84 0)
(declare-sort S85 0)
(declare-sort S86 0)
(declare-sort S87 0)
(declare-sort S88 0)
(declare-sort S89 0)
(declare-sort S90 0)
(declare-sort S91 0)
(declare-sort S92 0)
(declare-sort S93 0)
(declare-sort S94 0)
(declare-sort S95 0)
(declare-sort S96 0)
(declare-sort S97 0)
(declare-sort S98 0)
(declare-sort S99 0)
(declare-sort S100 0)
(declare-sort S101 0)
(declare-sort S102 0)
(declare-sort S103 0)
(declare-sort S104 0)
(declare-sort S105 0)
(declare-sort S106 0)
(declare-sort S107 0)
(declare-sort S108 0)
(declare-sort S109 0)
(declare-sort S110 0)
(declare-sort S111 0)
(declare-sort S112 0)
(declare-sort S113 0)
(declare-sort S114 0)
(declare-sort S115 0)
(declare-sort S116 0)
(declare-sort S117 0)
(declare-fun f1 () S1)
(declare-fun f2 () S1)
(declare-fun f3 (S2 S3) S4)
(declare-fun f4 () S2)
(declare-fun f5 (S5 S6) S3)
(declare-fun f6 (S7 S3) S5)
(declare-fun f7 () S7)
(declare-fun f8 (S8 S3) S3)
(declare-fun f9 (S9 S6) S8)
(declare-fun f10 () S9)
(declare-fun f11 () S6)
(declare-fun f12 () S3)
(declare-fun f13 () S6)
(declare-fun f14 () S3)
(declare-fun f15 (S11 S10) S12)
(declare-fun f16 (S13 S12) S11)
(declare-fun f17 () S13)
(declare-fun f18 () S12)
(declare-fun f19 (S15 S14) S16)
(declare-fun f20 (S17 S16) S15)
(declare-fun f21 () S17)
(declare-fun f22 () S16)
(declare-fun f23 (S19 S18) S20)
(declare-fun f24 (S21 S20) S19)
(declare-fun f25 () S21)
(declare-fun f26 () S20)
(declare-fun f27 (S22 S3) S18)
(declare-fun f28 (S23 S18) S22)
(declare-fun f29 () S23)
(declare-fun f30 () S18)
(declare-fun f31 (S24 S4) S14)
(declare-fun f32 (S25 S14) S24)
(declare-fun f33 () S25)
(declare-fun f34 () S14)
(declare-fun f35 (S27 S26) S10)
(declare-fun f36 (S28 S10) S27)
(declare-fun f37 () S28)
(declare-fun f38 () S10)
(declare-fun f39 (S29 S12) S12)
(declare-fun f40 (S30 S10) S29)
(declare-fun f41 () S30)
(declare-fun f42 (S31 S16) S16)
(declare-fun f43 (S32 S14) S31)
(declare-fun f44 () S32)
(declare-fun f45 (S33 S20) S20)
(declare-fun f46 (S34 S18) S33)
(declare-fun f47 () S34)
(declare-fun f48 (S35 S18) S18)
(declare-fun f49 (S36 S3) S35)
(declare-fun f50 () S36)
(declare-fun f51 (S37 S14) S14)
(declare-fun f52 (S38 S4) S37)
(declare-fun f53 () S38)
(declare-fun f54 (S39 S10) S10)
(declare-fun f55 (S40 S26) S39)
(declare-fun f56 () S40)
(declare-fun f57 () S6)
(declare-fun f58 () S26)
(declare-fun f59 () S4)
(declare-fun f60 (S41 S42) S42)
(declare-fun f61 (S43 S12) S41)
(declare-fun f62 () S43)
(declare-fun f63 () S42)
(declare-fun f64 (S44 S45) S45)
(declare-fun f65 (S46 S16) S44)
(declare-fun f66 () S46)
(declare-fun f67 () S45)
(declare-fun f68 (S47 S48) S48)
(declare-fun f69 (S49 S20) S47)
(declare-fun f70 () S49)
(declare-fun f71 () S48)
(declare-fun f72 (S50 S3) S1)
(declare-fun f73 (S51 S12) S1)
(declare-fun f74 (S52 S16) S1)
(declare-fun f75 (S53 S20) S1)
(declare-fun f76 (S54 S18) S1)
(declare-fun f77 (S55 S14) S1)
(declare-fun f78 (S56 S10) S1)
(declare-fun f79 (S57 S12) S4)
(declare-fun f80 () S57)
(declare-fun f81 (S58 S16) S4)
(declare-fun f82 () S58)
(declare-fun f83 (S59 S20) S4)
(declare-fun f84 () S59)
(declare-fun f85 (S60 S18) S4)
(declare-fun f86 () S60)
(declare-fun f87 (S61 S14) S4)
(declare-fun f88 () S61)
(declare-fun f89 (S62 S10) S4)
(declare-fun f90 () S62)
(declare-fun f91 (S63 S4) S4)
(declare-fun f92 () S63)
(declare-fun f93 (S64 S4) S6)
(declare-fun f94 (S65 S3) S64)
(declare-fun f95 () S65)
(declare-fun f96 (S66 S4) S26)
(declare-fun f97 (S67 S10) S66)
(declare-fun f98 () S67)
(declare-fun f99 (S68 S14) S63)
(declare-fun f100 () S68)
(declare-fun f101 (S69 S4) S3)
(declare-fun f102 (S70 S18) S69)
(declare-fun f103 () S70)
(declare-fun f104 (S71 S4) S12)
(declare-fun f105 (S72 S42) S71)
(declare-fun f106 () S72)
(declare-fun f107 (S73 S42) S4)
(declare-fun f108 () S73)
(declare-fun f109 (S74 S4) S16)
(declare-fun f110 (S75 S45) S74)
(declare-fun f111 () S75)
(declare-fun f112 (S76 S45) S4)
(declare-fun f113 () S76)
(declare-fun f114 (S77 S4) S20)
(declare-fun f115 (S78 S48) S77)
(declare-fun f116 () S78)
(declare-fun f117 (S79 S48) S4)
(declare-fun f118 () S79)
(declare-fun f119 (S80 S4) S18)
(declare-fun f120 (S81 S20) S80)
(declare-fun f121 () S81)
(declare-fun f122 (S82 S16) S24)
(declare-fun f123 () S82)
(declare-fun f124 (S83 S4) S10)
(declare-fun f125 (S84 S12) S83)
(declare-fun f126 () S84)
(declare-fun f127 () S7)
(declare-fun f128 () S13)
(declare-fun f129 () S17)
(declare-fun f130 () S21)
(declare-fun f131 () S23)
(declare-fun f132 () S25)
(declare-fun f133 () S28)
(declare-fun f134 (S85 S64) S64)
(declare-fun f135 (S86 S6) S85)
(declare-fun f136 () S86)
(declare-fun f137 (S87 S83) S83)
(declare-fun f138 (S88 S10) S87)
(declare-fun f139 () S88)
(declare-fun f140 (S89 S24) S24)
(declare-fun f141 (S90 S14) S89)
(declare-fun f142 () S90)
(declare-fun f143 (S91 S80) S80)
(declare-fun f144 (S92 S18) S91)
(declare-fun f145 () S92)
(declare-fun f146 (S93 S69) S69)
(declare-fun f147 (S94 S3) S93)
(declare-fun f148 () S94)
(declare-fun f149 (S95 S63) S63)
(declare-fun f150 (S96 S4) S95)
(declare-fun f151 () S96)
(declare-fun f152 (S97 S66) S66)
(declare-fun f153 (S98 S26) S97)
(declare-fun f154 () S98)
(declare-fun f155 (S99 S4) S1)
(declare-fun f156 (S100 S64) S3)
(declare-fun f157 () S100)
(declare-fun f158 (S101 S83) S12)
(declare-fun f159 () S101)
(declare-fun f160 (S102 S24) S16)
(declare-fun f161 () S102)
(declare-fun f162 (S103 S80) S20)
(declare-fun f163 () S103)
(declare-fun f164 (S104 S69) S18)
(declare-fun f165 () S104)
(declare-fun f166 (S105 S63) S14)
(declare-fun f167 () S105)
(declare-fun f168 (S106 S66) S10)
(declare-fun f169 () S106)
(declare-fun f170 (S107 S6) S69)
(declare-fun f171 () S107)
(declare-fun f172 (S108 S10) S71)
(declare-fun f173 () S108)
(declare-fun f174 (S109 S14) S74)
(declare-fun f175 () S109)
(declare-fun f176 (S110 S18) S77)
(declare-fun f177 () S110)
(declare-fun f178 (S111 S3) S80)
(declare-fun f179 () S111)
(declare-fun f180 (S112 S4) S24)
(declare-fun f181 () S112)
(declare-fun f182 (S113 S26) S83)
(declare-fun f183 () S113)
(declare-fun f184 (S114 S4) S45)
(declare-fun f185 (S115 S16) S114)
(declare-fun f186 () S115)
(declare-fun f187 (S116 S4) S48)
(declare-fun f188 (S117 S20) S116)
(declare-fun f189 () S117)
(declare-fun f190 (S4) S99)
(assert (not (= f1 f2)))
(assert (let ((?v_0 (f8 (f9 f10 f11) f12))) (not (= (f3 f4 (f5 (f6 f7 ?v_0) f13)) (f3 f4 ?v_0)))))
(assert (= (f3 f4 (f5 (f6 f7 f12) f13)) (f3 f4 f12)))
(assert (not (= f12 f14)))
(assert (forall ((?v0 S6)) (= (f5 (f6 f7 f14) ?v0) f14)))
(assert (forall ((?v0 S10)) (= (f15 (f16 f17 f18) ?v0) f18)))
(assert (forall ((?v0 S14)) (= (f19 (f20 f21 f22) ?v0) f22)))
(assert (forall ((?v0 S18)) (= (f23 (f24 f25 f26) ?v0) f26)))
(assert (forall ((?v0 S3)) (= (f27 (f28 f29 f30) ?v0) f30)))
(assert (forall ((?v0 S4)) (= (f31 (f32 f33 f34) ?v0) f34)))
(assert (forall ((?v0 S26)) (= (f35 (f36 f37 f38) ?v0) f38)))
(assert (forall ((?v0 S6) (?v1 S6)) (let ((?v_0 (f8 (f9 f10 ?v0) f14))) (= (f5 (f6 f7 ?v_0) ?v1) ?v_0))))
(assert (forall ((?v0 S10) (?v1 S10)) (let ((?v_0 (f39 (f40 f41 ?v0) f18))) (= (f15 (f16 f17 ?v_0) ?v1) ?v_0))))
(assert (forall ((?v0 S14) (?v1 S14)) (let ((?v_0 (f42 (f43 f44 ?v0) f22))) (= (f19 (f20 f21 ?v_0) ?v1) ?v_0))))
(assert (forall ((?v0 S18) (?v1 S18)) (let ((?v_0 (f45 (f46 f47 ?v0) f26))) (= (f23 (f24 f25 ?v_0) ?v1) ?v_0))))
(assert (forall ((?v0 S3) (?v1 S3)) (let ((?v_0 (f48 (f49 f50 ?v0) f30))) (= (f27 (f28 f29 ?v_0) ?v1) ?v_0))))
(assert (forall ((?v0 S4) (?v1 S4)) (let ((?v_0 (f51 (f52 f53 ?v0) f34))) (= (f31 (f32 f33 ?v_0) ?v1) ?v_0))))
(assert (forall ((?v0 S26) (?v1 S26)) (let ((?v_0 (f54 (f55 f56 ?v0) f38))) (= (f35 (f36 f37 ?v_0) ?v1) ?v_0))))
(assert (forall ((?v0 S3) (?v1 S6)) (= (= (f5 (f6 f7 ?v0) ?v1) f14) (= ?v0 f14))))
(assert (forall ((?v0 S12) (?v1 S10)) (= (= (f15 (f16 f17 ?v0) ?v1) f18) (= ?v0 f18))))
(assert (forall ((?v0 S16) (?v1 S14)) (= (= (f19 (f20 f21 ?v0) ?v1) f22) (= ?v0 f22))))
(assert (forall ((?v0 S20) (?v1 S18)) (= (= (f23 (f24 f25 ?v0) ?v1) f26) (= ?v0 f26))))
(assert (forall ((?v0 S18) (?v1 S3)) (= (= (f27 (f28 f29 ?v0) ?v1) f30) (= ?v0 f30))))
(assert (forall ((?v0 S14) (?v1 S4)) (= (= (f31 (f32 f33 ?v0) ?v1) f34) (= ?v0 f34))))
(assert (forall ((?v0 S10) (?v1 S26)) (= (= (f35 (f36 f37 ?v0) ?v1) f38) (= ?v0 f38))))
(assert (= (f8 (f9 f10 f57) f14) f14))
(assert (= (f54 (f55 f56 f58) f38) f38))
(assert (= (f51 (f52 f53 f59) f34) f34))
(assert (= (f48 (f49 f50 f14) f30) f30))
(assert (= (f60 (f61 f62 f18) f63) f63))
(assert (= (f64 (f65 f66 f22) f67) f67))
(assert (= (f68 (f69 f70 f26) f71) f71))
(assert (= (f45 (f46 f47 f30) f26) f26))
(assert (= (f42 (f43 f44 f34) f22) f22))
(assert (= (f39 (f40 f41 f38) f18) f18))
(assert (forall ((?v0 S6) (?v1 S3)) (= (= (f8 (f9 f10 ?v0) ?v1) f14) (and (= ?v0 f57) (= ?v1 f14)))))
(assert (forall ((?v0 S26) (?v1 S10)) (= (= (f54 (f55 f56 ?v0) ?v1) f38) (and (= ?v0 f58) (= ?v1 f38)))))
(assert (forall ((?v0 S4) (?v1 S14)) (= (= (f51 (f52 f53 ?v0) ?v1) f34) (and (= ?v0 f59) (= ?v1 f34)))))
(assert (forall ((?v0 S3) (?v1 S18)) (= (= (f48 (f49 f50 ?v0) ?v1) f30) (and (= ?v0 f14) (= ?v1 f30)))))
(assert (forall ((?v0 S12) (?v1 S42)) (= (= (f60 (f61 f62 ?v0) ?v1) f63) (and (= ?v0 f18) (= ?v1 f63)))))
(assert (forall ((?v0 S16) (?v1 S45)) (= (= (f64 (f65 f66 ?v0) ?v1) f67) (and (= ?v0 f22) (= ?v1 f67)))))
(assert (forall ((?v0 S20) (?v1 S48)) (= (= (f68 (f69 f70 ?v0) ?v1) f71) (and (= ?v0 f26) (= ?v1 f71)))))
(assert (forall ((?v0 S18) (?v1 S20)) (= (= (f45 (f46 f47 ?v0) ?v1) f26) (and (= ?v0 f30) (= ?v1 f26)))))
(assert (forall ((?v0 S14) (?v1 S16)) (= (= (f42 (f43 f44 ?v0) ?v1) f22) (and (= ?v0 f34) (= ?v1 f22)))))
(assert (forall ((?v0 S10) (?v1 S12)) (= (= (f39 (f40 f41 ?v0) ?v1) f18) (and (= ?v0 f38) (= ?v1 f18)))))
(assert (forall ((?v0 S6) (?v1 S3) (?v2 S6) (?v3 S3)) (= (= (f8 (f9 f10 ?v0) ?v1) (f8 (f9 f10 ?v2) ?v3)) (and (= ?v0 ?v2) (= ?v1 ?v3)))))
(assert (forall ((?v0 S10) (?v1 S12) (?v2 S10) (?v3 S12)) (= (= (f39 (f40 f41 ?v0) ?v1) (f39 (f40 f41 ?v2) ?v3)) (and (= ?v0 ?v2) (= ?v1 ?v3)))))
(assert (forall ((?v0 S14) (?v1 S16) (?v2 S14) (?v3 S16)) (= (= (f42 (f43 f44 ?v0) ?v1) (f42 (f43 f44 ?v2) ?v3)) (and (= ?v0 ?v2) (= ?v1 ?v3)))))
(assert (forall ((?v0 S18) (?v1 S20) (?v2 S18) (?v3 S20)) (= (= (f45 (f46 f47 ?v0) ?v1) (f45 (f46 f47 ?v2) ?v3)) (and (= ?v0 ?v2) (= ?v1 ?v3)))))
(assert (forall ((?v0 S3) (?v1 S18) (?v2 S3) (?v3 S18)) (= (= (f48 (f49 f50 ?v0) ?v1) (f48 (f49 f50 ?v2) ?v3)) (and (= ?v0 ?v2) (= ?v1 ?v3)))))
(assert (forall ((?v0 S4) (?v1 S14) (?v2 S4) (?v3 S14)) (= (= (f51 (f52 f53 ?v0) ?v1) (f51 (f52 f53 ?v2) ?v3)) (and (= ?v0 ?v2) (= ?v1 ?v3)))))
(assert (forall ((?v0 S26) (?v1 S10) (?v2 S26) (?v3 S10)) (= (= (f54 (f55 f56 ?v0) ?v1) (f54 (f55 f56 ?v2) ?v3)) (and (= ?v0 ?v2) (= ?v1 ?v3)))))
(assert (forall ((?v0 S50) (?v1 S3)) (=> (= (f72 ?v0 f14) f1) (=> (forall ((?v2 S6) (?v3 S3)) (=> (= (f72 ?v0 ?v3) f1) (= (f72 ?v0 (f8 (f9 f10 ?v2) ?v3)) f1))) (= (f72 ?v0 ?v1) f1)))))
(assert (forall ((?v0 S51) (?v1 S12)) (=> (= (f73 ?v0 f18) f1) (=> (forall ((?v2 S10) (?v3 S12)) (=> (= (f73 ?v0 ?v3) f1) (= (f73 ?v0 (f39 (f40 f41 ?v2) ?v3)) f1))) (= (f73 ?v0 ?v1) f1)))))
(assert (forall ((?v0 S52) (?v1 S16)) (=> (= (f74 ?v0 f22) f1) (=> (forall ((?v2 S14) (?v3 S16)) (=> (= (f74 ?v0 ?v3) f1) (= (f74 ?v0 (f42 (f43 f44 ?v2) ?v3)) f1))) (= (f74 ?v0 ?v1) f1)))))
(assert (forall ((?v0 S53) (?v1 S20)) (=> (= (f75 ?v0 f26) f1) (=> (forall ((?v2 S18) (?v3 S20)) (=> (= (f75 ?v0 ?v3) f1) (= (f75 ?v0 (f45 (f46 f47 ?v2) ?v3)) f1))) (= (f75 ?v0 ?v1) f1)))))
(assert (forall ((?v0 S54) (?v1 S18)) (=> (= (f76 ?v0 f30) f1) (=> (forall ((?v2 S3) (?v3 S18)) (=> (= (f76 ?v0 ?v3) f1) (= (f76 ?v0 (f48 (f49 f50 ?v2) ?v3)) f1))) (= (f76 ?v0 ?v1) f1)))))
(assert (forall ((?v0 S55) (?v1 S14)) (=> (= (f77 ?v0 f34) f1) (=> (forall ((?v2 S4) (?v3 S14)) (=> (= (f77 ?v0 ?v3) f1) (= (f77 ?v0 (f51 (f52 f53 ?v2) ?v3)) f1))) (= (f77 ?v0 ?v1) f1)))))
(assert (forall ((?v0 S56) (?v1 S10)) (=> (= (f78 ?v0 f38) f1) (=> (forall ((?v2 S26) (?v3 S10)) (=> (= (f78 ?v0 ?v3) f1) (= (f78 ?v0 (f54 (f55 f56 ?v2) ?v3)) f1))) (= (f78 ?v0 ?v1) f1)))))
(assert (forall ((?v0 S26)) (= (= f58 ?v0) (= ?v0 f58))))
(assert (forall ((?v0 S4)) (= (= f59 ?v0) (= ?v0 f59))))
(assert (forall ((?v0 S3)) (= (= f14 ?v0) (= ?v0 f14))))
(assert (forall ((?v0 S12)) (= (= f18 ?v0) (= ?v0 f18))))
(assert (forall ((?v0 S16)) (= (= f22 ?v0) (= ?v0 f22))))
(assert (forall ((?v0 S20)) (= (= f26 ?v0) (= ?v0 f26))))
(assert (forall ((?v0 S18)) (= (= f30 ?v0) (= ?v0 f30))))
(assert (forall ((?v0 S14)) (= (= f34 ?v0) (= ?v0 f34))))
(assert (forall ((?v0 S10)) (= (= f38 ?v0) (= ?v0 f38))))
(assert (forall ((?v0 S6)) (= (= f57 ?v0) (= ?v0 f57))))
(assert (forall ((?v0 S6)) (= (f3 f4 (f8 (f9 f10 ?v0) f14)) f59)))
(assert (forall ((?v0 S10)) (= (f79 f80 (f39 (f40 f41 ?v0) f18)) f59)))
(assert (forall ((?v0 S14)) (= (f81 f82 (f42 (f43 f44 ?v0) f22)) f59)))
(assert (forall ((?v0 S18)) (= (f83 f84 (f45 (f46 f47 ?v0) f26)) f59)))
(assert (forall ((?v0 S3)) (= (f85 f86 (f48 (f49 f50 ?v0) f30)) f59)))
(assert (forall ((?v0 S4)) (= (f87 f88 (f51 (f52 f53 ?v0) f34)) f59)))
(assert (forall ((?v0 S26)) (= (f89 f90 (f54 (f55 f56 ?v0) f38)) f59)))
(assert (forall ((?v0 S3) (?v1 S6)) (=> (not (= ?v0 f14)) (= (f3 f4 (f8 (f9 f10 ?v1) ?v0)) (f91 f92 (f3 f4 ?v0))))))
(assert (forall ((?v0 S12) (?v1 S10)) (=> (not (= ?v0 f18)) (= (f79 f80 (f39 (f40 f41 ?v1) ?v0)) (f91 f92 (f79 f80 ?v0))))))
(assert (forall ((?v0 S16) (?v1 S14)) (=> (not (= ?v0 f22)) (= (f81 f82 (f42 (f43 f44 ?v1) ?v0)) (f91 f92 (f81 f82 ?v0))))))
(assert (forall ((?v0 S20) (?v1 S18)) (=> (not (= ?v0 f26)) (= (f83 f84 (f45 (f46 f47 ?v1) ?v0)) (f91 f92 (f83 f84 ?v0))))))
(assert (forall ((?v0 S18) (?v1 S3)) (=> (not (= ?v0 f30)) (= (f85 f86 (f48 (f49 f50 ?v1) ?v0)) (f91 f92 (f85 f86 ?v0))))))
(assert (forall ((?v0 S14) (?v1 S4)) (=> (not (= ?v0 f34)) (= (f87 f88 (f51 (f52 f53 ?v1) ?v0)) (f91 f92 (f87 f88 ?v0))))))
(assert (forall ((?v0 S10) (?v1 S26)) (=> (not (= ?v0 f38)) (= (f89 f90 (f54 (f55 f56 ?v1) ?v0)) (f91 f92 (f89 f90 ?v0))))))
(assert (forall ((?v0 S3)) (= (= (f93 (f94 f95 ?v0) (f3 f4 ?v0)) f57) (= ?v0 f14))))
(assert (forall ((?v0 S10)) (= (= (f96 (f97 f98 ?v0) (f89 f90 ?v0)) f58) (= ?v0 f38))))
(assert (forall ((?v0 S14)) (= (= (f91 (f99 f100 ?v0) (f87 f88 ?v0)) f59) (= ?v0 f34))))
(assert (forall ((?v0 S18)) (= (= (f101 (f102 f103 ?v0) (f85 f86 ?v0)) f14) (= ?v0 f30))))
(assert (forall ((?v0 S42)) (= (= (f104 (f105 f106 ?v0) (f107 f108 ?v0)) f18) (= ?v0 f63))))
(assert (forall ((?v0 S45)) (= (= (f109 (f110 f111 ?v0) (f112 f113 ?v0)) f22) (= ?v0 f67))))
(assert (forall ((?v0 S48)) (= (= (f114 (f115 f116 ?v0) (f117 f118 ?v0)) f26) (= ?v0 f71))))
(assert (forall ((?v0 S20)) (= (= (f119 (f120 f121 ?v0) (f83 f84 ?v0)) f30) (= ?v0 f26))))
(assert (forall ((?v0 S16)) (= (= (f31 (f122 f123 ?v0) (f81 f82 ?v0)) f34) (= ?v0 f22))))
(assert (forall ((?v0 S12)) (= (= (f124 (f125 f126 ?v0) (f79 f80 ?v0)) f38) (= ?v0 f18))))
(assert (forall ((?v0 S3)) (=> (not (= ?v0 f14)) (not (= (f93 (f94 f95 ?v0) (f3 f4 ?v0)) f57)))))
(assert (forall ((?v0 S10)) (=> (not (= ?v0 f38)) (not (= (f96 (f97 f98 ?v0) (f89 f90 ?v0)) f58)))))
(assert (forall ((?v0 S14)) (=> (not (= ?v0 f34)) (not (= (f91 (f99 f100 ?v0) (f87 f88 ?v0)) f59)))))
(assert (forall ((?v0 S18)) (=> (not (= ?v0 f30)) (not (= (f101 (f102 f103 ?v0) (f85 f86 ?v0)) f14)))))
(assert (forall ((?v0 S42)) (=> (not (= ?v0 f63)) (not (= (f104 (f105 f106 ?v0) (f107 f108 ?v0)) f18)))))
(assert (forall ((?v0 S45)) (=> (not (= ?v0 f67)) (not (= (f109 (f110 f111 ?v0) (f112 f113 ?v0)) f22)))))
(assert (forall ((?v0 S48)) (=> (not (= ?v0 f71)) (not (= (f114 (f115 f116 ?v0) (f117 f118 ?v0)) f26)))))
(assert (forall ((?v0 S20)) (=> (not (= ?v0 f26)) (not (= (f119 (f120 f121 ?v0) (f83 f84 ?v0)) f30)))))
(assert (forall ((?v0 S16)) (=> (not (= ?v0 f22)) (not (= (f31 (f122 f123 ?v0) (f81 f82 ?v0)) f34)))))
(assert (forall ((?v0 S12)) (=> (not (= ?v0 f18)) (not (= (f124 (f125 f126 ?v0) (f79 f80 ?v0)) f38)))))
(assert (forall ((?v0 S12) (?v1 S12)) (= (= ?v0 ?v1) (forall ((?v2 S4)) (= (f124 (f125 f126 ?v0) ?v2) (f124 (f125 f126 ?v1) ?v2))))))
(assert (forall ((?v0 S16) (?v1 S16)) (= (= ?v0 ?v1) (forall ((?v2 S4)) (= (f31 (f122 f123 ?v0) ?v2) (f31 (f122 f123 ?v1) ?v2))))))
(assert (forall ((?v0 S20) (?v1 S20)) (= (= ?v0 ?v1) (forall ((?v2 S4)) (= (f119 (f120 f121 ?v0) ?v2) (f119 (f120 f121 ?v1) ?v2))))))
(assert (forall ((?v0 S18) (?v1 S18)) (= (= ?v0 ?v1) (forall ((?v2 S4)) (= (f101 (f102 f103 ?v0) ?v2) (f101 (f102 f103 ?v1) ?v2))))))
(assert (forall ((?v0 S14) (?v1 S14)) (= (= ?v0 ?v1) (forall ((?v2 S4)) (= (f91 (f99 f100 ?v0) ?v2) (f91 (f99 f100 ?v1) ?v2))))))
(assert (forall ((?v0 S10) (?v1 S10)) (= (= ?v0 ?v1) (forall ((?v2 S4)) (= (f96 (f97 f98 ?v0) ?v2) (f96 (f97 f98 ?v1) ?v2))))))
(assert (forall ((?v0 S3) (?v1 S3)) (= (= ?v0 ?v1) (forall ((?v2 S4)) (= (f93 (f94 f95 ?v0) ?v2) (f93 (f94 f95 ?v1) ?v2))))))
(assert (forall ((?v0 S12) (?v1 S12)) (= (= (f125 f126 ?v0) (f125 f126 ?v1)) (= ?v0 ?v1))))
(assert (forall ((?v0 S16) (?v1 S16)) (= (= (f122 f123 ?v0) (f122 f123 ?v1)) (= ?v0 ?v1))))
(assert (forall ((?v0 S20) (?v1 S20)) (= (= (f120 f121 ?v0) (f120 f121 ?v1)) (= ?v0 ?v1))))
(assert (forall ((?v0 S18) (?v1 S18)) (= (= (f102 f103 ?v0) (f102 f103 ?v1)) (= ?v0 ?v1))))
(assert (forall ((?v0 S14) (?v1 S14)) (= (= (f99 f100 ?v0) (f99 f100 ?v1)) (= ?v0 ?v1))))
(assert (forall ((?v0 S10) (?v1 S10)) (= (= (f97 f98 ?v0) (f97 f98 ?v1)) (= ?v0 ?v1))))
(assert (forall ((?v0 S3) (?v1 S3)) (= (= (f94 f95 ?v0) (f94 f95 ?v1)) (= ?v0 ?v1))))
(assert (forall ((?v0 S6) (?v1 S3)) (= (f93 (f94 f95 (f8 (f9 f10 ?v0) ?v1)) f59) ?v0)))
(assert (forall ((?v0 S10) (?v1 S12)) (= (f124 (f125 f126 (f39 (f40 f41 ?v0) ?v1)) f59) ?v0)))
(assert (forall ((?v0 S14) (?v1 S16)) (= (f31 (f122 f123 (f42 (f43 f44 ?v0) ?v1)) f59) ?v0)))
(assert (forall ((?v0 S18) (?v1 S20)) (= (f119 (f120 f121 (f45 (f46 f47 ?v0) ?v1)) f59) ?v0)))
(assert (forall ((?v0 S3) (?v1 S18)) (= (f101 (f102 f103 (f48 (f49 f50 ?v0) ?v1)) f59) ?v0)))
(assert (forall ((?v0 S4) (?v1 S14)) (= (f91 (f99 f100 (f51 (f52 f53 ?v0) ?v1)) f59) ?v0)))
(assert (forall ((?v0 S26) (?v1 S10)) (= (f96 (f97 f98 (f54 (f55 f56 ?v0) ?v1)) f59) ?v0)))
(assert (forall ((?v0 S6) (?v1 S3) (?v2 S4)) (= (f93 (f94 f95 (f8 (f9 f10 ?v0) ?v1)) (f91 f92 ?v2)) (f93 (f94 f95 ?v1) ?v2))))
(assert (forall ((?v0 S10) (?v1 S12) (?v2 S4)) (= (f124 (f125 f126 (f39 (f40 f41 ?v0) ?v1)) (f91 f92 ?v2)) (f124 (f125 f126 ?v1) ?v2))))
(assert (forall ((?v0 S14) (?v1 S16) (?v2 S4)) (= (f31 (f122 f123 (f42 (f43 f44 ?v0) ?v1)) (f91 f92 ?v2)) (f31 (f122 f123 ?v1) ?v2))))
(assert (forall ((?v0 S18) (?v1 S20) (?v2 S4)) (= (f119 (f120 f121 (f45 (f46 f47 ?v0) ?v1)) (f91 f92 ?v2)) (f119 (f120 f121 ?v1) ?v2))))
(assert (forall ((?v0 S3) (?v1 S18) (?v2 S4)) (= (f101 (f102 f103 (f48 (f49 f50 ?v0) ?v1)) (f91 f92 ?v2)) (f101 (f102 f103 ?v1) ?v2))))
(assert (forall ((?v0 S4) (?v1 S14) (?v2 S4)) (= (f91 (f99 f100 (f51 (f52 f53 ?v0) ?v1)) (f91 f92 ?v2)) (f91 (f99 f100 ?v1) ?v2))))
(assert (forall ((?v0 S26) (?v1 S10) (?v2 S4)) (= (f96 (f97 f98 (f54 (f55 f56 ?v0) ?v1)) (f91 f92 ?v2)) (f96 (f97 f98 ?v1) ?v2))))
(assert (forall ((?v0 S6) (?v1 S3)) (= (f3 f4 (f8 (f9 f10 ?v0) ?v1)) (ite (= ?v1 f14) f59 (f91 f92 (f3 f4 ?v1))))))
(assert (forall ((?v0 S10) (?v1 S12)) (= (f79 f80 (f39 (f40 f41 ?v0) ?v1)) (ite (= ?v1 f18) f59 (f91 f92 (f79 f80 ?v1))))))
(assert (forall ((?v0 S14) (?v1 S16)) (= (f81 f82 (f42 (f43 f44 ?v0) ?v1)) (ite (= ?v1 f22) f59 (f91 f92 (f81 f82 ?v1))))))
(assert (forall ((?v0 S18) (?v1 S20)) (= (f83 f84 (f45 (f46 f47 ?v0) ?v1)) (ite (= ?v1 f26) f59 (f91 f92 (f83 f84 ?v1))))))
(assert (forall ((?v0 S3) (?v1 S18)) (= (f85 f86 (f48 (f49 f50 ?v0) ?v1)) (ite (= ?v1 f30) f59 (f91 f92 (f85 f86 ?v1))))))
(assert (forall ((?v0 S4) (?v1 S14)) (= (f87 f88 (f51 (f52 f53 ?v0) ?v1)) (ite (= ?v1 f34) f59 (f91 f92 (f87 f88 ?v1))))))
(assert (forall ((?v0 S26) (?v1 S10)) (= (f89 f90 (f54 (f55 f56 ?v0) ?v1)) (ite (= ?v1 f38) f59 (f91 f92 (f89 f90 ?v1))))))
(assert (forall ((?v0 S4)) (= (f96 (f97 f98 f38) ?v0) f58)))
(assert (forall ((?v0 S4)) (= (f91 (f99 f100 f34) ?v0) f59)))
(assert (forall ((?v0 S4)) (= (f101 (f102 f103 f30) ?v0) f14)))
(assert (forall ((?v0 S4)) (= (f93 (f94 f95 f14) ?v0) f57)))
(assert (forall ((?v0 S4)) (= (f104 (f105 f106 f63) ?v0) f18)))
(assert (forall ((?v0 S4)) (= (f109 (f110 f111 f67) ?v0) f22)))
(assert (forall ((?v0 S4)) (= (f114 (f115 f116 f71) ?v0) f26)))
(assert (forall ((?v0 S4)) (= (f119 (f120 f121 f26) ?v0) f30)))
(assert (forall ((?v0 S4)) (= (f31 (f122 f123 f22) ?v0) f34)))
(assert (forall ((?v0 S4)) (= (f124 (f125 f126 f18) ?v0) f38)))
(assert (= (f3 f4 f14) f59))
(assert (= (f79 f80 f18) f59))
(assert (= (f81 f82 f22) f59))
(assert (= (f83 f84 f26) f59))
(assert (= (f85 f86 f30) f59))
(assert (= (f87 f88 f34) f59))
(assert (= (f89 f90 f38) f59))
(assert (forall ((?v0 S4)) (not (= f59 (f91 f92 ?v0)))))
(assert (forall ((?v0 S4)) (not (= f59 (f91 f92 ?v0)))))
(assert (forall ((?v0 S4)) (not (= (f91 f92 ?v0) f59))))
(assert (forall ((?v0 S4)) (not (= (f91 f92 ?v0) f59))))
(assert (forall ((?v0 S4)) (=> (= f59 (f91 f92 ?v0)) false)))
(assert (forall ((?v0 S4)) (=> (= (f91 f92 ?v0) f59) false)))
(assert (forall ((?v0 S3) (?v1 S6)) (= (= (f5 (f6 f127 ?v0) ?v1) f14) (= (f3 f4 ?v0) f59))))
(assert (forall ((?v0 S12) (?v1 S10)) (= (= (f15 (f16 f128 ?v0) ?v1) f18) (= (f79 f80 ?v0) f59))))
(assert (forall ((?v0 S16) (?v1 S14)) (= (= (f19 (f20 f129 ?v0) ?v1) f22) (= (f81 f82 ?v0) f59))))
(assert (forall ((?v0 S20) (?v1 S18)) (= (= (f23 (f24 f130 ?v0) ?v1) f26) (= (f83 f84 ?v0) f59))))
(assert (forall ((?v0 S18) (?v1 S3)) (= (= (f27 (f28 f131 ?v0) ?v1) f30) (= (f85 f86 ?v0) f59))))
(assert (forall ((?v0 S14) (?v1 S4)) (= (= (f31 (f32 f132 ?v0) ?v1) f34) (= (f87 f88 ?v0) f59))))
(assert (forall ((?v0 S10) (?v1 S26)) (= (= (f35 (f36 f133 ?v0) ?v1) f38) (= (f89 f90 ?v0) f59))))
(assert (forall ((?v0 S12) (?v1 S12)) (=> (forall ((?v2 S4)) (= (f124 (f125 f126 ?v0) ?v2) (f124 (f125 f126 ?v1) ?v2))) (= ?v0 ?v1))))
(assert (forall ((?v0 S16) (?v1 S16)) (=> (forall ((?v2 S4)) (= (f31 (f122 f123 ?v0) ?v2) (f31 (f122 f123 ?v1) ?v2))) (= ?v0 ?v1))))
(assert (forall ((?v0 S20) (?v1 S20)) (=> (forall ((?v2 S4)) (= (f119 (f120 f121 ?v0) ?v2) (f119 (f120 f121 ?v1) ?v2))) (= ?v0 ?v1))))
(assert (forall ((?v0 S18) (?v1 S18)) (=> (forall ((?v2 S4)) (= (f101 (f102 f103 ?v0) ?v2) (f101 (f102 f103 ?v1) ?v2))) (= ?v0 ?v1))))
(assert (forall ((?v0 S14) (?v1 S14)) (=> (forall ((?v2 S4)) (= (f91 (f99 f100 ?v0) ?v2) (f91 (f99 f100 ?v1) ?v2))) (= ?v0 ?v1))))
(assert (forall ((?v0 S10) (?v1 S10)) (=> (forall ((?v2 S4)) (= (f96 (f97 f98 ?v0) ?v2) (f96 (f97 f98 ?v1) ?v2))) (= ?v0 ?v1))))
(assert (forall ((?v0 S3) (?v1 S3)) (=> (forall ((?v2 S4)) (= (f93 (f94 f95 ?v0) ?v2) (f93 (f94 f95 ?v1) ?v2))) (= ?v0 ?v1))))
(assert (forall ((?v0 S3)) (=> (forall ((?v1 S6) (?v2 S3)) (=> (= ?v0 (f8 (f9 f10 ?v1) ?v2)) false)) false)))
(assert (forall ((?v0 S12)) (=> (forall ((?v1 S10) (?v2 S12)) (=> (= ?v0 (f39 (f40 f41 ?v1) ?v2)) false)) false)))
(assert (forall ((?v0 S16)) (=> (forall ((?v1 S14) (?v2 S16)) (=> (= ?v0 (f42 (f43 f44 ?v1) ?v2)) false)) false)))
(assert (forall ((?v0 S20)) (=> (forall ((?v1 S18) (?v2 S20)) (=> (= ?v0 (f45 (f46 f47 ?v1) ?v2)) false)) false)))
(assert (forall ((?v0 S18)) (=> (forall ((?v1 S3) (?v2 S18)) (=> (= ?v0 (f48 (f49 f50 ?v1) ?v2)) false)) false)))
(assert (forall ((?v0 S14)) (=> (forall ((?v1 S4) (?v2 S14)) (=> (= ?v0 (f51 (f52 f53 ?v1) ?v2)) false)) false)))
(assert (forall ((?v0 S10)) (=> (forall ((?v1 S26) (?v2 S10)) (=> (= ?v0 (f54 (f55 f56 ?v1) ?v2)) false)) false)))
(assert (forall ((?v0 S6) (?v1 S3)) (= (f94 f95 (f8 (f9 f10 ?v0) ?v1)) (f134 (f135 f136 ?v0) (f94 f95 ?v1)))))
(assert (forall ((?v0 S10) (?v1 S12)) (= (f125 f126 (f39 (f40 f41 ?v0) ?v1)) (f137 (f138 f139 ?v0) (f125 f126 ?v1)))))
(assert (forall ((?v0 S14) (?v1 S16)) (= (f122 f123 (f42 (f43 f44 ?v0) ?v1)) (f140 (f141 f142 ?v0) (f122 f123 ?v1)))))
(assert (forall ((?v0 S18) (?v1 S20)) (= (f120 f121 (f45 (f46 f47 ?v0) ?v1)) (f143 (f144 f145 ?v0) (f120 f121 ?v1)))))
(assert (forall ((?v0 S3) (?v1 S18)) (= (f102 f103 (f48 (f49 f50 ?v0) ?v1)) (f146 (f147 f148 ?v0) (f102 f103 ?v1)))))
(assert (forall ((?v0 S4) (?v1 S14)) (= (f99 f100 (f51 (f52 f53 ?v0) ?v1)) (f149 (f150 f151 ?v0) (f99 f100 ?v1)))))
(assert (forall ((?v0 S26) (?v1 S10)) (= (f97 f98 (f54 (f55 f56 ?v0) ?v1)) (f152 (f153 f154 ?v0) (f97 f98 ?v1)))))
(assert (forall ((?v0 S26) (?v1 S66)) (= (f96 (f152 (f153 f154 ?v0) ?v1) f59) ?v0)))
(assert (forall ((?v0 S4) (?v1 S63)) (= (f91 (f149 (f150 f151 ?v0) ?v1) f59) ?v0)))
(assert (forall ((?v0 S3) (?v1 S69)) (= (f101 (f146 (f147 f148 ?v0) ?v1) f59) ?v0)))
(assert (forall ((?v0 S6) (?v1 S64)) (= (f93 (f134 (f135 f136 ?v0) ?v1) f59) ?v0)))
(assert (forall ((?v0 S26) (?v1 S66) (?v2 S4)) (= (f96 (f152 (f153 f154 ?v0) ?v1) (f91 f92 ?v2)) (f96 ?v1 ?v2))))
(assert (forall ((?v0 S4) (?v1 S63) (?v2 S4)) (= (f91 (f149 (f150 f151 ?v0) ?v1) (f91 f92 ?v2)) (f91 ?v1 ?v2))))
(assert (forall ((?v0 S3) (?v1 S69) (?v2 S4)) (= (f101 (f146 (f147 f148 ?v0) ?v1) (f91 f92 ?v2)) (f101 ?v1 ?v2))))
(assert (forall ((?v0 S6) (?v1 S64) (?v2 S4)) (= (f93 (f134 (f135 f136 ?v0) ?v1) (f91 f92 ?v2)) (f93 ?v1 ?v2))))
(assert (forall ((?v0 S6)) (= (f5 (f6 f127 f14) ?v0) f14)))
(assert (forall ((?v0 S10)) (= (f15 (f16 f128 f18) ?v0) f18)))
(assert (forall ((?v0 S14)) (= (f19 (f20 f129 f22) ?v0) f22)))
(assert (forall ((?v0 S18)) (= (f23 (f24 f130 f26) ?v0) f26)))
(assert (forall ((?v0 S3)) (= (f27 (f28 f131 f30) ?v0) f30)))
(assert (forall ((?v0 S4)) (= (f31 (f32 f132 f34) ?v0) f34)))
(assert (forall ((?v0 S26)) (= (f35 (f36 f133 f38) ?v0) f38)))
(assert (forall ((?v0 S4) (?v1 S4)) (=> (= (f91 f92 ?v0) (f91 f92 ?v1)) (= ?v0 ?v1))))
(assert (forall ((?v0 S4) (?v1 S4)) (= (= (f91 f92 ?v0) (f91 f92 ?v1)) (= ?v0 ?v1))))
(assert (forall ((?v0 S4)) (not (= (f91 f92 ?v0) ?v0))))
(assert (forall ((?v0 S4)) (not (= ?v0 (f91 f92 ?v0)))))
(assert (forall ((?v0 S4)) (=> (=> (= ?v0 f59) false) (=> (forall ((?v1 S4)) (=> (= ?v0 (f91 f92 ?v1)) false)) false))))
(assert (forall ((?v0 S99) (?v1 S4)) (=> (= (f155 ?v0 ?v1) f1) (=> (forall ((?v2 S4)) (=> (= (f155 ?v0 (f91 f92 ?v2)) f1) (= (f155 ?v0 ?v2) f1))) (= (f155 ?v0 f59) f1)))))
(assert (forall ((?v0 S99) (?v1 S4)) (=> (= (f155 ?v0 f59) f1) (=> (forall ((?v2 S4)) (=> (= (f155 ?v0 ?v2) f1) (= (f155 ?v0 (f91 f92 ?v2)) f1))) (= (f155 ?v0 ?v1) f1)))))
(assert (forall ((?v0 S4)) (=> (not (= ?v0 f59)) (exists ((?v1 S4)) (= ?v0 (f91 f92 ?v1))))))
(assert (forall ((?v0 S6) (?v1 S3)) (= (f8 (f9 f10 ?v0) ?v1) (f156 f157 (f134 (f135 f136 ?v0) (f94 f95 ?v1))))))
(assert (forall ((?v0 S10) (?v1 S12)) (= (f39 (f40 f41 ?v0) ?v1) (f158 f159 (f137 (f138 f139 ?v0) (f125 f126 ?v1))))))
(assert (forall ((?v0 S14) (?v1 S16)) (= (f42 (f43 f44 ?v0) ?v1) (f160 f161 (f140 (f141 f142 ?v0) (f122 f123 ?v1))))))
(assert (forall ((?v0 S18) (?v1 S20)) (= (f45 (f46 f47 ?v0) ?v1) (f162 f163 (f143 (f144 f145 ?v0) (f120 f121 ?v1))))))
(assert (forall ((?v0 S3) (?v1 S18)) (= (f48 (f49 f50 ?v0) ?v1) (f164 f165 (f146 (f147 f148 ?v0) (f102 f103 ?v1))))))
(assert (forall ((?v0 S4) (?v1 S14)) (= (f51 (f52 f53 ?v0) ?v1) (f166 f167 (f149 (f150 f151 ?v0) (f99 f100 ?v1))))))
(assert (forall ((?v0 S26) (?v1 S10)) (= (f54 (f55 f56 ?v0) ?v1) (f168 f169 (f152 (f153 f154 ?v0) (f97 f98 ?v1))))))
(assert (forall ((?v0 S6)) (= (f101 (f170 f171 ?v0) f59) (f8 (f9 f10 ?v0) f14))))
(assert (forall ((?v0 S10)) (= (f104 (f172 f173 ?v0) f59) (f39 (f40 f41 ?v0) f18))))
(assert (forall ((?v0 S14)) (= (f109 (f174 f175 ?v0) f59) (f42 (f43 f44 ?v0) f22))))
(assert (forall ((?v0 S18)) (= (f114 (f176 f177 ?v0) f59) (f45 (f46 f47 ?v0) f26))))
(assert (forall ((?v0 S3)) (= (f119 (f178 f179 ?v0) f59) (f48 (f49 f50 ?v0) f30))))
(assert (forall ((?v0 S4)) (= (f31 (f180 f181 ?v0) f59) (f51 (f52 f53 ?v0) f34))))
(assert (forall ((?v0 S26)) (= (f124 (f182 f183 ?v0) f59) (f54 (f55 f56 ?v0) f38))))
(assert (forall ((?v0 S3) (?v1 S4)) (let ((?v_0 (f178 f179 ?v0))) (= (f119 ?v_0 (f91 f92 ?v1)) (f48 (f49 f50 f14) (f119 ?v_0 ?v1))))))
(assert (forall ((?v0 S4) (?v1 S4)) (let ((?v_0 (f180 f181 ?v0))) (= (f31 ?v_0 (f91 f92 ?v1)) (f51 (f52 f53 f59) (f31 ?v_0 ?v1))))))
(assert (forall ((?v0 S26) (?v1 S4)) (let ((?v_0 (f182 f183 ?v0))) (= (f124 ?v_0 (f91 f92 ?v1)) (f54 (f55 f56 f58) (f124 ?v_0 ?v1))))))
(assert (forall ((?v0 S6) (?v1 S4)) (let ((?v_0 (f170 f171 ?v0))) (= (f101 ?v_0 (f91 f92 ?v1)) (f8 (f9 f10 f57) (f101 ?v_0 ?v1))))))
(assert (forall ((?v0 S16) (?v1 S4)) (let ((?v_0 (f185 f186 ?v0))) (= (f184 ?v_0 (f91 f92 ?v1)) (f64 (f65 f66 f22) (f184 ?v_0 ?v1))))))
(assert (forall ((?v0 S20) (?v1 S4)) (let ((?v_0 (f188 f189 ?v0))) (= (f187 ?v_0 (f91 f92 ?v1)) (f68 (f69 f70 f26) (f187 ?v_0 ?v1))))))
(assert (forall ((?v0 S18) (?v1 S4)) (let ((?v_0 (f176 f177 ?v0))) (= (f114 ?v_0 (f91 f92 ?v1)) (f45 (f46 f47 f30) (f114 ?v_0 ?v1))))))
(assert (forall ((?v0 S14) (?v1 S4)) (let ((?v_0 (f174 f175 ?v0))) (= (f109 ?v_0 (f91 f92 ?v1)) (f42 (f43 f44 f34) (f109 ?v_0 ?v1))))))
(assert (forall ((?v0 S10) (?v1 S4)) (let ((?v_0 (f172 f173 ?v0))) (= (f104 ?v_0 (f91 f92 ?v1)) (f39 (f40 f41 f38) (f104 ?v_0 ?v1))))))
(assert (forall ((?v0 S26) (?v1 S10)) (= (f155 (f190 (f89 f90 (f54 (f55 f56 ?v0) ?v1))) (f91 f92 (f89 f90 ?v1))) f1)))
(assert (forall ((?v0 S4) (?v1 S14)) (= (f155 (f190 (f87 f88 (f51 (f52 f53 ?v0) ?v1))) (f91 f92 (f87 f88 ?v1))) f1)))
(assert (forall ((?v0 S3) (?v1 S18)) (= (f155 (f190 (f85 f86 (f48 (f49 f50 ?v0) ?v1))) (f91 f92 (f85 f86 ?v1))) f1)))
(assert (forall ((?v0 S6) (?v1 S3)) (= (f155 (f190 (f3 f4 (f8 (f9 f10 ?v0) ?v1))) (f91 f92 (f3 f4 ?v1))) f1)))
(assert (forall ((?v0 S12) (?v1 S4)) (=> (not (= (f124 (f125 f126 ?v0) ?v1) f38)) (= (f155 (f190 ?v1) (f79 f80 ?v0)) f1))))
(assert (forall ((?v0 S16) (?v1 S4)) (=> (not (= (f31 (f122 f123 ?v0) ?v1) f34)) (= (f155 (f190 ?v1) (f81 f82 ?v0)) f1))))
(assert (forall ((?v0 S20) (?v1 S4)) (=> (not (= (f119 (f120 f121 ?v0) ?v1) f30)) (= (f155 (f190 ?v1) (f83 f84 ?v0)) f1))))
(assert (forall ((?v0 S18) (?v1 S4)) (=> (not (= (f101 (f102 f103 ?v0) ?v1) f14)) (= (f155 (f190 ?v1) (f85 f86 ?v0)) f1))))
(assert (forall ((?v0 S14) (?v1 S4)) (=> (not (= (f91 (f99 f100 ?v0) ?v1) f59)) (= (f155 (f190 ?v1) (f87 f88 ?v0)) f1))))
(assert (forall ((?v0 S10) (?v1 S4)) (=> (not (= (f96 (f97 f98 ?v0) ?v1) f58)) (= (f155 (f190 ?v1) (f89 f90 ?v0)) f1))))
(assert (forall ((?v0 S3) (?v1 S4)) (=> (not (= (f93 (f94 f95 ?v0) ?v1) f57)) (= (f155 (f190 ?v1) (f3 f4 ?v0)) f1))))
(assert (forall ((?v0 S4)) (= (f155 (f190 f59) ?v0) f1)))
(assert (forall ((?v0 S4) (?v1 S4)) (=> (= (f155 (f190 ?v0) ?v1) f1) (=> (= (f155 (f190 ?v1) ?v0) f1) (= ?v0 ?v1)))))
(assert (forall ((?v0 S4) (?v1 S4) (?v2 S4)) (let ((?v_0 (f190 ?v0))) (=> (= (f155 ?v_0 ?v1) f1) (=> (= (f155 (f190 ?v1) ?v2) f1) (= (f155 ?v_0 ?v2) f1))))))
(assert (forall ((?v0 S4) (?v1 S4)) (=> (= ?v0 ?v1) (= (f155 (f190 ?v0) ?v1) f1))))
(assert (forall ((?v0 S4) (?v1 S4)) (or (= (f155 (f190 ?v0) ?v1) f1) (= (f155 (f190 ?v1) ?v0) f1))))
(assert (forall ((?v0 S4)) (= (f155 (f190 ?v0) ?v0) f1)))
(assert (forall ((?v0 S6) (?v1 S4) (?v2 S6)) (= (= (f101 (f170 f171 ?v0) ?v1) (f101 (f170 f171 ?v2) ?v1)) (= ?v0 ?v2))))
(assert (forall ((?v0 S26) (?v1 S4) (?v2 S26)) (= (= (f124 (f182 f183 ?v0) ?v1) (f124 (f182 f183 ?v2) ?v1)) (= ?v0 ?v2))))
(assert (forall ((?v0 S4) (?v1 S4) (?v2 S4)) (= (= (f31 (f180 f181 ?v0) ?v1) (f31 (f180 f181 ?v2) ?v1)) (= ?v0 ?v2))))
(assert (forall ((?v0 S3) (?v1 S4) (?v2 S3)) (= (= (f119 (f178 f179 ?v0) ?v1) (f119 (f178 f179 ?v2) ?v1)) (= ?v0 ?v2))))
(assert (forall ((?v0 S26) (?v1 S4)) (= (f155 (f190 (f89 f90 (f124 (f182 f183 ?v0) ?v1))) ?v1) f1)))
(assert (forall ((?v0 S4) (?v1 S4)) (= (f155 (f190 (f87 f88 (f31 (f180 f181 ?v0) ?v1))) ?v1) f1)))
(assert (forall ((?v0 S3) (?v1 S4)) (= (f155 (f190 (f85 f86 (f119 (f178 f179 ?v0) ?v1))) ?v1) f1)))
(assert (forall ((?v0 S6) (?v1 S4)) (= (f155 (f190 (f3 f4 (f101 (f170 f171 ?v0) ?v1))) ?v1) f1)))
(assert (forall ((?v0 S4)) (= (= (f155 (f190 f59) ?v0) f1) true)))
(assert (forall ((?v0 S4)) (= (= (f155 (f190 ?v0) f59) f1) (= ?v0 f59))))
(assert (forall ((?v0 S4)) (not (= (f155 (f190 (f91 f92 ?v0)) ?v0) f1))))
(assert (forall ((?v0 S4) (?v1 S4)) (= (not (= (f155 (f190 ?v0) ?v1) f1)) (= (f155 (f190 (f91 f92 ?v1)) ?v0) f1))))
(assert (forall ((?v0 S4) (?v1 S4)) (let ((?v_0 (f190 ?v0)) (?v_1 (f91 f92 ?v1))) (= (= (f155 ?v_0 ?v_1) f1) (or (= (f155 ?v_0 ?v1) f1) (= ?v0 ?v_1))))))
(assert (forall ((?v0 S4) (?v1 S4)) (= (= (f155 (f190 (f91 f92 ?v0)) (f91 f92 ?v1)) f1) (= (f155 (f190 ?v0) ?v1) f1))))
(assert (forall ((?v0 S4) (?v1 S4)) (let ((?v_0 (f190 ?v0))) (=> (= (f155 ?v_0 ?v1) f1) (= (f155 ?v_0 (f91 f92 ?v1)) f1)))))
(check-sat)
(exit)
